unsat
(:SPACER-conj                         8
 :SPACER-expand-pob-undef             14
 :SPACER-inductive-gen                39
 :SPACER-inductive-gen-weaken-fail    51
 :SPACER-inductive-level              5
 :SPACER-max-depth                    10
 :SPACER-max-query-lvl                10
 :SPACER-non-local-gen                29
 :SPACER-num-active-lemmas            29
 :SPACER-num-ctp-blocked              14
 :SPACER-num-invariants               20
 :SPACER-num-is_invariant             206
 :SPACER-num-lemma-jumped             3
 :SPACER-num-lemmas                   71
 :SPACER-num-non-lin                  1
 :SPACER-num-pobs                     51
 :SPACER-num-propagations             107
 :SPACER-num-queries                  66
 :SPACER-num-reach-queries            20
 :SPACER-num-reuse-reach-facts        18
 :SPACER-subsume-failed               4
 :SPACER-subsume-pob                  5
 :SPACER-subsume-success              4
 :added-eqs                           74906
 :arith-assert-diseq                  10904
 :arith-assert-lower                  39304
 :arith-assert-upper                  39976
 :arith-bound-prop                    2172
 :arith-branch-var                    112
 :arith-conflicts                     128
 :arith-eq-adapter                    9906
 :arith-fixed-eqs                     17106
 :arith-gcd-conflicts                 148
 :arith-gcd-tests                     1834
 :arith-gomory-cuts                   78
 :arith-ineq-splits                   112
 :arith-num-rows                      200
 :arith-offset-eqs                    5398
 :arith-patches                       220
 :arith-patches_succ                  26
 :arith-pivots                        6136
 :arith-row-summations                26568
 :arith-tableau-max-columns           338
 :arith-tableau-max-rows              200
 :conflicts                           1376
 :decisions                           30016
 :del-clause                          33854
 :final-checks                        804
 :iuc_solver.num_proxies              98
 :max-memory                          35.08
 :memory                              34.30
 :minimized-lits                      1160
 :mk-bool-var                         35332
 :mk-clause                           37096
 :num-allocs                          173048414
 :num-checks                          1150
 :pool_solver.checks                  575
 :pool_solver.checks.sat              78
 :pool_solver.checks.undef            153
 :propagations                        166108
 :rlimit-count                        788922
 :time                                0.71
 :time.iuc_solver.get_iuc             0.05
 :time.iuc_solver.get_iuc.hyp_reduce1 0.01
 :time.iuc_solver.get_iuc.hyp_reduce2 0.02
 :time.iuc_solver.get_iuc.learn_core  0.01
 :time.pool_solver.proof              0.01
 :time.pool_solver.smt.total          0.44
 :time.pool_solver.smt.total.sat      0.09
 :time.pool_solver.smt.total.undef    0.17
 :time.spacer.ctp                     0.00
 :time.spacer.init_rules              0.00
 :time.spacer.mbp                     0.01
 :time.spacer.solve                   0.69
 :time.spacer.solve.propagate         0.24
 :time.spacer.solve.reach             0.45
 :time.spacer.solve.reach.children    0.02
 :time.spacer.solve.reach.cluster     0.03
 :time.spacer.solve.reach.gen.global  0.04
 :time.spacer.solve.reach.gen.ind     0.06
 :time.spacer.solve.reach.is-reach    0.01)
(:max-memory   35.08
 :memory       34.30
 :num-allocs   173048414
 :rlimit-count 788922
 :time         0.71
 :total-time   0.73)
